NAME sublimation_srl_ilp
* Max problem is converted into Min one
ROWS
 N  OBJ
 L  constraint1_2550
 L  constraint1_6032
 L  constraint1_6034
 L  constraint1_6030
 L  constraint1_6033
 L  constraint1_6031
 L  constraint1_6035
 L  constraint1_5460
 L  constraint2_2550
 L  constraint2_2551
 L  constraint2_2552
 L  constraint2_2553
 L  constraint2_6030
 L  constraint2_6031
 L  constraint2_6032
 L  constraint2_6033
 L  constraint2_5460
 L  constraint2_5461
 L  constraint2_5462
 L  constraint2_5463
COLUMNS
    MARKER    'MARKER'                 'INTORG'
    Z_255_0_0  OBJ       -7.4458281109516305e-03
    Z_255_0_0  constraint1_2550  1
    Z_255_0_0  constraint2_2550  1
    Z_255_0_1  OBJ       -5.2902550254498330e-03
    Z_255_0_1  constraint1_2550  1
    Z_255_0_1  constraint2_2551  1
    Z_255_0_2  OBJ       -3.1876648730841334e-01
    Z_255_0_2  constraint1_2550  1
    Z_255_0_2  constraint2_2552  1
    Z_255_0_3  OBJ       -1.3072760003721137e-02
    Z_255_0_3  constraint1_2550  1
    Z_255_0_3  constraint2_2553  1
    Z_255_0_4  OBJ       -5.5542466955146408e-01
    Z_255_0_4  constraint1_2550  1
    Z_603_2_0  OBJ       -2.9090511040667875e-03
    Z_603_2_0  constraint1_6032  1
    Z_603_2_0  constraint2_6030  1
    Z_603_2_1  OBJ       -2.4223883728969981e-03
    Z_603_2_1  constraint1_6032  1
    Z_603_2_1  constraint2_6031  1
    Z_603_2_2  OBJ       -4.6127000161105958e-01
    Z_603_2_2  constraint1_6032  1
    Z_603_2_2  constraint2_6032  1
    Z_603_2_3  OBJ       -4.6144076596353742e-03
    Z_603_2_3  constraint1_6032  1
    Z_603_2_3  constraint2_6033  1
    Z_603_2_4  OBJ       -4.2878415125234132e-01
    Z_603_2_4  constraint1_6032  1
    Z_603_4_0  OBJ       -3.4572864033574541e-02
    Z_603_4_0  constraint1_6034  1
    Z_603_4_0  constraint2_6030  1
    Z_603_4_1  OBJ       -6.6790220395337871e-02
    Z_603_4_1  constraint1_6034  1
    Z_603_4_1  constraint2_6031  1
    Z_603_4_2  OBJ       -7.9396129007983512e-03
    Z_603_4_2  constraint1_6034  1
    Z_603_4_2  constraint2_6032  1
    Z_603_4_3  OBJ       -4.1654744362174384e-01
    Z_603_4_3  constraint1_6034  1
    Z_603_4_3  constraint2_6033  1
    Z_603_4_4  OBJ       -3.7414985904854536e-01
    Z_603_4_4  constraint1_6034  1
    Z_603_0_0  OBJ       -3.0873109099042888e-02
    Z_603_0_0  constraint1_6030  1
    Z_603_0_0  constraint2_6030  1
    Z_603_0_1  OBJ       -9.2494301941083726e-02
    Z_603_0_1  constraint1_6030  1
    Z_603_0_1  constraint2_6031  1
    Z_603_0_2  OBJ       -7.6141392518696343e-03
    Z_603_0_2  constraint1_6030  1
    Z_603_0_2  constraint2_6032  1
    Z_603_0_3  OBJ       -5.9356196186298796e-02
    Z_603_0_3  constraint1_6030  1
    Z_603_0_3  constraint2_6033  1
    Z_603_0_4  OBJ       -7.0966225352170498e-01
    Z_603_0_4  constraint1_6030  1
    Z_603_3_0  OBJ       -3.0873109099042888e-02
    Z_603_3_0  constraint1_6033  1
    Z_603_3_0  constraint2_6030  1
    Z_603_3_1  OBJ       -9.2494301941083726e-02
    Z_603_3_1  constraint1_6033  1
    Z_603_3_1  constraint2_6031  1
    Z_603_3_2  OBJ       -7.6141392518696343e-03
    Z_603_3_2  constraint1_6033  1
    Z_603_3_2  constraint2_6032  1
    Z_603_3_3  OBJ       -5.9356196186298796e-02
    Z_603_3_3  constraint1_6033  1
    Z_603_3_3  constraint2_6033  1
    Z_603_3_4  OBJ       -7.0966225352170498e-01
    Z_603_3_4  constraint1_6033  1
    Z_603_1_0  OBJ       -2.9090511040667875e-03
    Z_603_1_0  constraint1_6031  1
    Z_603_1_0  constraint2_6030  1
    Z_603_1_1  OBJ       -2.4223883728969981e-03
    Z_603_1_1  constraint1_6031  1
    Z_603_1_1  constraint2_6031  1
    Z_603_1_2  OBJ       -4.6127000161105958e-01
    Z_603_1_2  constraint1_6031  1
    Z_603_1_2  constraint2_6032  1
    Z_603_1_3  OBJ       -4.6144076596353742e-03
    Z_603_1_3  constraint1_6031  1
    Z_603_1_3  constraint2_6033  1
    Z_603_1_4  OBJ       -4.2878415125234132e-01
    Z_603_1_4  constraint1_6031  1
    Z_603_5_0  OBJ       -1.1093076094509365e-01
    Z_603_5_0  constraint1_6035  1
    Z_603_5_0  constraint2_6030  1
    Z_603_5_1  OBJ       -4.5443400042813761e-02
    Z_603_5_1  constraint1_6035  1
    Z_603_5_1  constraint2_6031  1
    Z_603_5_2  OBJ       -2.4080849474899319e-02
    Z_603_5_2  constraint1_6035  1
    Z_603_5_2  constraint2_6032  1
    Z_603_5_3  OBJ       -1.3865626723862327e-02
    Z_603_5_3  constraint1_6035  1
    Z_603_5_3  constraint2_6033  1
    Z_603_5_4  OBJ       -7.0567936281333099e-01
    Z_603_5_4  constraint1_6035  1
    Z_546_0_0  OBJ       -2.6949764233165606e-03
    Z_546_0_0  constraint1_5460  1
    Z_546_0_0  constraint2_5460  1
    Z_546_0_1  OBJ       -1.9310883333850372e-02
    Z_546_0_1  constraint1_5460  1
    Z_546_0_1  constraint2_5461  1
    Z_546_0_2  OBJ       -4.9857562911048573e-03
    Z_546_0_2  constraint1_5460  1
    Z_546_0_2  constraint2_5462  1
    Z_546_0_3  OBJ       -3.6706314240233523e-01
    Z_546_0_3  constraint1_5460  1
    Z_546_0_3  constraint2_5463  1
    Z_546_0_4  OBJ       -5.0594524154939302e-01
    Z_546_0_4  constraint1_5460  1
    MARKER    'MARKER'                 'INTEND'
RHS
    RHS1      constraint1_2550  1
    RHS1      constraint1_6032  1
    RHS1      constraint1_6034  1
    RHS1      constraint1_6030  1
    RHS1      constraint1_6033  1
    RHS1      constraint1_6031  1
    RHS1      constraint1_6035  1
    RHS1      constraint1_5460  1
    RHS1      constraint2_2550  1
    RHS1      constraint2_2551  1
    RHS1      constraint2_2552  1
    RHS1      constraint2_2553  1
    RHS1      constraint2_6030  1
    RHS1      constraint2_6031  1
    RHS1      constraint2_6032  1
    RHS1      constraint2_6033  1
    RHS1      constraint2_5460  1
    RHS1      constraint2_5461  1
    RHS1      constraint2_5462  1
    RHS1      constraint2_5463  1
BOUNDS
 UP BND1      Z_255_0_0  1
 UP BND1      Z_255_0_1  1
 UP BND1      Z_255_0_2  1
 UP BND1      Z_255_0_3  1
 UP BND1      Z_255_0_4  1
 UP BND1      Z_603_2_0  1
 UP BND1      Z_603_2_1  1
 UP BND1      Z_603_2_2  1
 UP BND1      Z_603_2_3  1
 UP BND1      Z_603_2_4  1
 UP BND1      Z_603_4_0  1
 UP BND1      Z_603_4_1  1
 UP BND1      Z_603_4_2  1
 UP BND1      Z_603_4_3  1
 UP BND1      Z_603_4_4  1
 UP BND1      Z_603_0_0  1
 UP BND1      Z_603_0_1  1
 UP BND1      Z_603_0_2  1
 UP BND1      Z_603_0_3  1
 UP BND1      Z_603_0_4  1
 UP BND1      Z_603_3_0  1
 UP BND1      Z_603_3_1  1
 UP BND1      Z_603_3_2  1
 UP BND1      Z_603_3_3  1
 UP BND1      Z_603_3_4  1
 UP BND1      Z_603_1_0  1
 UP BND1      Z_603_1_1  1
 UP BND1      Z_603_1_2  1
 UP BND1      Z_603_1_3  1
 UP BND1      Z_603_1_4  1
 UP BND1      Z_603_5_0  1
 UP BND1      Z_603_5_1  1
 UP BND1      Z_603_5_2  1
 UP BND1      Z_603_5_3  1
 UP BND1      Z_603_5_4  1
 UP BND1      Z_546_0_0  1
 UP BND1      Z_546_0_1  1
 UP BND1      Z_546_0_2  1
 UP BND1      Z_546_0_3  1
 UP BND1      Z_546_0_4  1
ENDATA
